NAME : portcgen-25-18
COMMENT : portcgen N=25, seed=18
TYPE : TSP
DIMENSION : 25
EDGE_WEIGHT_TYPE : EUC_2D
NODE_COORD_SECTION
1 247841 83253
2 -231507 377126
3 136146 494719
4 132885 92133
5 78333 150300
6 -162002 166320
7 -55546 278688
8 -327272 -299489
9 115160 225622
10 244420 156304
11 338278 -231635
12 102607 -336648
13 -64383 -62851
14 76590 248979
15 148237 -491820
16 -7062 268276
17 38402 -83105
18 -11795 5012
19 273391 22074
20 94937 -12534
21 -175406 -45840
22 224177 -99284
23 218101 199754
24 15785 498909
25 68167 -102955
